decision_x1=[0,4];
decision_x2=[0,4];
decision_x3=[0,4];
decision_x4=[0,4];
decision_x5=[0,4];
decision_x6=[0,4];
decision_x7=[0,4];
decision_x8=[0,4];
decision_x9=[0,4];
decision_x10=[0,4];
decision_x11=[0,4];
decision_x12=[0,4];
random_y1=[0,4];
random_y2=[0,4];
random_y3=[0,4];
random_y4=[0,4];
random_y5=[0,4];
random_y6=[0,4];
constraint_x4_x1=[
0,1,8.8|
0,2,0.9|
0,3,7.6|
0,4,8.5|
1,0,3.1|
1,2,9.6|
1,3,0.081|
1,4,1.6|
2,0,8.8|
2,1,0.69|
2,3,3.2|
2,4,1.1|
3,0,5.7|
3,1,0.18|
3,2,4.8|
3,4,8.2|
4,0,1.8|
4,1,4.4|
4,2,7.7|
4,3,3.5|
];
constraint_x4_x3=[
0,1,2.4|
0,2,5.5|
0,3,1.5|
0,4,1.1|
1,0,2.7|
1,2,0.92|
1,3,4.3|
1,4,9|
2,0,1.2|
2,1,6.8|
2,3,0.64|
2,4,9.1|
3,0,5.5|
3,1,1.1|
3,2,7.2|
3,4,3.6|
4,0,6|
4,1,1.7|
4,2,0.78|
4,3,7|
];
constraint_x5_x1=[
0,1,0.11|
0,2,9.8|
0,3,6.3|
0,4,9.3|
1,0,5.7|
1,2,0.58|
1,3,6.5|
1,4,4.5|
2,0,4.9|
2,1,7.3|
2,3,8|
2,4,10|
3,0,4.3|
3,1,0.86|
3,2,5.9|
3,4,0.78|
4,0,1.8|
4,1,5.2|
4,2,4.7|
4,3,2.5|
];
constraint_x5_x3=[
0,1,8.7|
0,2,9.1|
0,3,9.3|
0,4,5.8|
1,0,3|
1,2,2.8|
1,3,1.8|
1,4,2.9|
2,0,0.71|
2,1,7.3|
2,3,5.4|
2,4,3|
3,0,8.5|
3,1,10|
3,2,5.6|
3,4,7.8|
4,0,5.3|
4,1,9.7|
4,2,8.5|
4,3,7.3|
];
constraint_x6_x1=[
0,1,4|
0,2,0.26|
0,3,0.13|
0,4,1.2|
1,0,8.2|
1,2,0.4|
1,3,8.4|
1,4,0.53|
2,0,3.9|
2,1,5.2|
2,3,6.5|
2,4,8.8|
3,0,3.4|
3,1,2.4|
3,2,3.2|
3,4,3.2|
4,0,4.5|
4,1,4.5|
4,2,7.6|
4,3,1.1|
];
constraint_x7_x3=[
0,1,2.2|
0,2,1.4|
0,3,3.2|
0,4,6.8|
1,0,2.6|
1,2,9.8|
1,3,3.9|
1,4,3.2|
2,0,9.4|
2,1,2.9|
2,3,9.3|
2,4,6.2|
3,0,9.7|
3,1,1.2|
3,2,9.8|
3,4,9.7|
4,0,5.4|
4,1,5.3|
4,2,2.7|
4,3,5.1|
];
constraint_x7_x4=[
0,1,1.9|
0,2,3.9|
0,3,0.4|
0,4,6.4|
1,0,7.5|
1,2,4.9|
1,3,2.8|
1,4,7.6|
2,0,4.2|
2,1,5.7|
2,3,8|
2,4,1.5|
3,0,0.23|
3,1,9.9|
3,2,5.8|
3,4,5|
4,0,0.65|
4,1,9.3|
4,2,5.2|
4,3,7.6|
];
constraint_x7_x5=[
0,1,4.7|
0,2,9|
0,3,1.7|
0,4,5.5|
1,0,3.4|
1,2,5.8|
1,3,9.1|
1,4,1.6|
2,0,1|
2,1,1.6|
2,3,3.4|
2,4,3.7|
3,0,0.29|
3,1,2.2|
3,2,1.5|
3,4,0.99|
4,0,6.1|
4,1,3.1|
4,2,6.7|
4,3,2.9|
];
constraint_x7_x6=[
0,1,3.8|
0,2,0.78|
0,3,5.8|
0,4,4.2|
1,0,9|
1,2,4.7|
1,3,7|
1,4,8.9|
2,0,3.1|
2,1,6.6|
2,3,3.7|
2,4,4.3|
3,0,3.6|
3,1,1.2|
3,2,0.35|
3,4,9.9|
4,0,7.3|
4,1,5.7|
4,2,8.1|
4,3,5.2|
];
constraint_x8_x3=[
0,1,8.5|
0,2,0.17|
0,3,2.2|
0,4,5|
1,0,2.2|
1,2,0.9|
1,3,3.7|
1,4,1.5|
2,0,4.5|
2,1,9.1|
2,3,0.61|
2,4,8.3|
3,0,6.3|
3,1,1.1|
3,2,0.83|
3,4,8.1|
4,0,4.1|
4,1,6.7|
4,2,4|
4,3,3.8|
];
constraint_x9_x2=[
0,1,8|
0,2,1.1|
0,3,4.6|
0,4,3.2|
1,0,6.2|
1,2,6|
1,3,8.5|
1,4,0.44|
2,0,1.4|
2,1,2.3|
2,3,0.96|
2,4,1.3|
3,0,2.4|
3,1,2.1|
3,2,6.4|
3,4,8.3|
4,0,2.7|
4,1,9|
4,2,5.9|
4,3,4.2|
];
constraint_x9_x4=[
0,1,0.13|
0,2,0.54|
0,3,4.3|
0,4,9.2|
1,0,0.92|
1,2,2|
1,3,6.2|
1,4,2.1|
2,0,3.4|
2,1,6.6|
2,3,4.4|
2,4,7.3|
3,0,5.2|
3,1,6.8|
3,2,7.9|
3,4,6.8|
4,0,6.3|
4,1,6.2|
4,2,4.4|
4,3,3.2|
];
constraint_x9_x5=[
0,1,7.6|
0,2,0.2|
0,3,1.4|
0,4,2.2|
1,0,1.8|
1,2,1.3|
1,3,5.3|
1,4,6.2|
2,0,3.5|
2,1,5.9|
2,3,9.7|
2,4,0.67|
3,0,9|
3,1,6.9|
3,2,6.4|
3,4,4|
4,0,7.1|
4,1,6.3|
4,2,0.72|
4,3,2.7|
];
constraint_x9_x7=[
0,1,4.3|
0,2,2.3|
0,3,6.9|
0,4,9.5|
1,0,7.3|
1,2,8.8|
1,3,8.4|
1,4,4.3|
2,0,2.2|
2,1,2.9|
2,3,9.9|
2,4,0.58|
3,0,7.1|
3,1,7.9|
3,2,3.8|
3,4,5.3|
4,0,0.55|
4,1,8.9|
4,2,6.6|
4,3,5|
];
constraint_x10_x2=[
0,1,8.9|
0,2,8.8|
0,3,7.1|
0,4,8.4|
1,0,1.5|
1,2,9.7|
1,3,5.4|
1,4,1.8|
2,0,8.4|
2,1,9.1|
2,3,9.7|
2,4,2.7|
3,0,5.7|
3,1,4.2|
3,2,9.2|
3,4,1.9|
4,0,0.98|
4,1,4.4|
4,2,4|
4,3,3.9|
];
constraint_x10_x4=[
0,1,7.4|
0,2,5.2|
0,3,5.6|
0,4,6.9|
1,0,7.3|
1,2,7.9|
1,3,1.9|
1,4,8.8|
2,0,2.5|
2,1,5.2|
2,3,9.9|
2,4,9.1|
3,0,4.7|
3,1,4.8|
3,2,3.8|
3,4,6.4|
4,0,7|
4,1,5.7|
4,2,8.1|
4,3,8.8|
];
constraint_x10_x6=[
0,1,8.5|
0,2,7|
0,3,4|
0,4,8.3|
1,0,0.61|
1,2,6.2|
1,3,7.2|
1,4,2.8|
2,0,6|
2,1,0.25|
2,3,7.7|
2,4,0.32|
3,0,2.8|
3,1,3.7|
3,2,1.6|
3,4,6.5|
4,0,9.5|
4,1,0.066|
4,2,6.4|
4,3,2.3|
];
constraint_x10_x8=[
0,1,0.65|
0,2,4.5|
0,3,6.8|
0,4,7.1|
1,0,7.6|
1,2,2.2|
1,3,7.8|
1,4,4.7|
2,0,5.9|
2,1,8.6|
2,3,2.1|
2,4,0.18|
3,0,7.2|
3,1,9.2|
3,2,9|
3,4,2.3|
4,0,2.3|
4,1,9.5|
4,2,3.1|
4,3,2.7|
];
constraint_x10_x9=[
0,1,5.5|
0,2,2.6|
0,3,0.48|
0,4,0.22|
1,0,0.16|
1,2,5.9|
1,3,9.5|
1,4,3.6|
2,0,9.7|
2,1,5.3|
2,3,2.6|
2,4,0.66|
3,0,5.3|
3,1,5.2|
3,2,5.3|
3,4,9.6|
4,0,9.1|
4,1,7.4|
4,2,3.6|
4,3,7.6|
];
constraint_x11_x1=[
0,1,8|
0,2,9.3|
0,3,4|
0,4,7.4|
1,0,7.1|
1,2,2.4|
1,3,2.2|
1,4,9.6|
2,0,7.3|
2,1,5.3|
2,3,6.5|
2,4,1.2|
3,0,5.9|
3,1,5.8|
3,2,1.8|
3,4,9.6|
4,0,5.4|
4,1,4.8|
4,2,1.3|
4,3,7.2|
];
constraint_x11_x3=[
0,1,1.5|
0,2,4.6|
0,3,7.4|
0,4,2.9|
1,0,4.9|
1,2,1.1|
1,3,9.1|
1,4,4.7|
2,0,8.8|
2,1,3.2|
2,3,2.3|
2,4,1.3|
3,0,3|
3,1,3.6|
3,2,4|
3,4,3.5|
4,0,1.4|
4,1,3.6|
4,2,1.1|
4,3,2.5|
];
constraint_x11_x4=[
0,1,7.6|
0,2,9.7|
0,3,1.7|
0,4,0.74|
1,0,8.5|
1,2,8.9|
1,3,9.3|
1,4,7.5|
2,0,0.62|
2,1,1.2|
2,3,6.2|
2,4,5.4|
3,0,9.4|
3,1,7.2|
3,2,5|
3,4,0.84|
4,0,7.5|
4,1,2|
4,2,0.42|
4,3,2.6|
];
constraint_x11_x5=[
0,1,8.2|
0,2,7.7|
0,3,1.1|
0,4,7.3|
1,0,1.4|
1,2,5.2|
1,3,4.3|
1,4,3.9|
2,0,2.9|
2,1,2.2|
2,3,1.7|
2,4,0.99|
3,0,0.23|
3,1,2.2|
3,2,8.3|
3,4,3.5|
4,0,3.9|
4,1,6.1|
4,2,6.9|
4,3,4.5|
];
constraint_x11_x6=[
0,1,8.1|
0,2,6.7|
0,3,3.1|
0,4,0.81|
1,0,5.6|
1,2,1.9|
1,3,1.6|
1,4,8.9|
2,0,7.4|
2,1,6.3|
2,3,7.6|
2,4,4|
3,0,0.98|
3,1,3.9|
3,2,2.4|
3,4,1.2|
4,0,9|
4,1,1.4|
4,2,2.4|
4,3,3|
];
constraint_x11_x8=[
0,1,0.96|
0,2,3.1|
0,3,8.7|
0,4,2.6|
1,0,8.9|
1,2,9|
1,3,6.2|
1,4,8.9|
2,0,9.2|
2,1,8|
2,3,9.5|
2,4,6.1|
3,0,5.8|
3,1,5.7|
3,2,6|
3,4,8.7|
4,0,3|
4,1,0.027|
4,2,6.5|
4,3,4.6|
];
constraint_x12_x1=[
0,1,9.3|
0,2,0.41|
0,3,6.5|
0,4,4.6|
1,0,7.3|
1,2,5.8|
1,3,0.16|
1,4,2.1|
2,0,5.6|
2,1,0.18|
2,3,1.2|
2,4,4.4|
3,0,2.9|
3,1,2.2|
3,2,0.77|
3,4,8.7|
4,0,1.7|
4,1,3.1|
4,2,1.7|
4,3,4.3|
];
constraint_x12_x3=[
0,1,8.4|
0,2,8.2|
0,3,1.7|
0,4,2.3|
1,0,1.8|
1,2,4.8|
1,3,2.1|
1,4,7.1|
2,0,6|
2,1,9.4|
2,3,7.1|
2,4,1.4|
3,0,8.8|
3,1,4.6|
3,2,6.6|
3,4,4.7|
4,0,2.6|
4,1,9.3|
4,2,2.8|
4,3,9|
];
constraint_x12_x4=[
0,1,5.1|
0,2,7.6|
0,3,5.2|
0,4,0.47|
1,0,1.5|
1,2,7.9|
1,3,5.7|
1,4,3.6|
2,0,5.5|
2,1,6|
2,3,4.1|
2,4,1.6|
3,0,9|
3,1,4.9|
3,2,6.7|
3,4,7.7|
4,0,9.3|
4,1,0.028|
4,2,6.3|
4,3,0.43|
];
constraint_x12_x5=[
0,1,0.52|
0,2,8.7|
0,3,2.3|
0,4,3.6|
1,0,9|
1,2,0.75|
1,3,5.1|
1,4,4.1|
2,0,3.5|
2,1,8.7|
2,3,4.6|
2,4,4.1|
3,0,9.5|
3,1,9.9|
3,2,8.3|
3,4,6.7|
4,0,9.8|
4,1,1.5|
4,2,9.9|
4,3,5.8|
];
constraint_x12_x6=[
0,1,4|
0,2,0.37|
0,3,1.8|
0,4,8|
1,0,3.5|
1,2,0.39|
1,3,0.5|
1,4,2.9|
2,0,1.1|
2,1,4.1|
2,3,3.5|
2,4,6.3|
3,0,4.3|
3,1,7.5|
3,2,5.9|
3,4,8.5|
4,0,6.6|
4,1,6.9|
4,2,9|
4,3,4.4|
];
constraint_x12_x7=[
0,1,0.91|
0,2,8|
0,3,6.6|
0,4,4.5|
1,0,9|
1,2,1.1|
1,3,9.2|
1,4,0.96|
2,0,4.5|
2,1,9|
2,3,8.5|
2,4,9.7|
3,0,0.82|
3,1,9.1|
3,2,8.3|
3,4,7.3|
4,0,5|
4,1,7.3|
4,2,8.2|
4,3,4|
];
constraint_x12_x8=[
0,1,0.74|
0,2,2.5|
0,3,4.1|
0,4,6.1|
1,0,0.55|
1,2,4.2|
1,3,8.9|
1,4,7.9|
2,0,3.4|
2,1,1.3|
2,3,2|
2,4,7.8|
3,0,1.2|
3,1,0.33|
3,2,3|
3,4,4.3|
4,0,7.3|
4,1,3|
4,2,3.8|
4,3,9|
];
constraint_x12_x10=[
0,1,3.7|
0,2,3.9|
0,3,3.7|
0,4,6.3|
1,0,0.39|
1,2,1.2|
1,3,0.39|
1,4,7.9|
2,0,7.6|
2,1,6.3|
2,3,2.1|
2,4,7.7|
3,0,7|
3,1,7.2|
3,2,6.6|
3,4,3.8|
4,0,8.5|
4,1,5.6|
4,2,2|
4,3,3.5|
];
constraint_x1_y1=[
0,0,3.9|
0,1,2.4|
0,2,1.4|
0,3,9.1|
0,4,5.6|
1,0,6.5|
1,1,2.7|
1,2,3.3|
1,3,9|
1,4,5.4|
2,0,8.3|
2,1,5.8|
2,2,6.3|
2,3,9.2|
2,4,8.2|
3,0,0.26|
3,1,0.94|
3,2,1.5|
3,3,2.9|
3,4,5.4|
4,0,2|
4,1,0.91|
4,2,8.8|
4,3,7.3|
4,4,9.9|
];
constraint_x2_y2=[
0,0,8.8|
0,1,6.3|
0,2,5.1|
0,3,2.5|
0,4,1.8|
1,0,7.2|
1,1,9.2|
1,2,3.1|
1,3,2.9|
1,4,4.5|
2,0,2.4|
2,1,0.24|
2,2,4.9|
2,3,2.1|
2,4,0.6|
3,0,4.3|
3,1,0.37|
3,2,3.8|
3,3,6|
3,4,2.6|
4,0,7.7|
4,1,9.4|
4,2,4.3|
4,3,0.45|
4,4,8.9|
];
constraint_x3_y3=[
0,0,9.4|
0,1,9.4|
0,2,9.6|
0,3,5.1|
0,4,6.2|
1,0,5|
1,1,8.9|
1,2,1.9|
1,3,9.7|
1,4,4.7|
2,0,1.6|
2,1,4.6|
2,2,8.3|
2,3,7.1|
2,4,0.72|
3,0,8.9|
3,1,0.48|
3,2,1.9|
3,3,2.1|
3,4,2.3|
4,0,2.4|
4,1,0.71|
4,2,4.4|
4,3,4.8|
4,4,6.7|
];
constraint_x4_y4=[
0,0,1.5|
0,1,5|
0,2,4.8|
0,3,4.3|
0,4,4.1|
1,0,5.8|
1,1,5.2|
1,2,8.7|
1,3,5.8|
1,4,4|
2,0,8.9|
2,1,2.4|
2,2,9.2|
2,3,9.5|
2,4,4.4|
3,0,7.4|
3,1,3|
3,2,6.9|
3,3,2.6|
3,4,8.7|
4,0,4|
4,1,3.9|
4,2,7.4|
4,3,3.7|
4,4,7.1|
];
constraint_x5_y5=[
0,0,0.75|
0,1,1.3|
0,2,5.6|
0,3,1.6|
0,4,2.3|
1,0,5.2|
1,1,9.9|
1,2,0.57|
1,3,9.3|
1,4,6.8|
2,0,0.91|
2,1,8.4|
2,2,4.1|
2,3,4.6|
2,4,9.8|
3,0,9|
3,1,1.9|
3,2,1.7|
3,3,1.5|
3,4,8.9|
4,0,8.9|
4,1,8.6|
4,2,7.5|
4,3,9.9|
4,4,0.8|
];
constraint_x6_y6=[
0,0,5.2|
0,1,7.1|
0,2,7.8|
0,3,4.9|
0,4,6.5|
1,0,6.4|
1,1,5.6|
1,2,9.8|
1,3,2.2|
1,4,3.1|
2,0,7.6|
2,1,7.4|
2,2,7|
2,3,9.6|
2,4,2.1|
3,0,8.4|
3,1,2.3|
3,2,3|
3,3,9|
3,4,9|
4,0,3.3|
4,1,1.1|
4,2,3.7|
4,3,4.8|
4,4,8.7|
];
initial_distribution_y1=[0.097,0.026,0.3,0.24,0.34];
initial_distribution_y2=[0.29,0.12,0.3,0.22,0.071];
initial_distribution_y3=[0.27,0.2,0.13,0.2,0.2];
initial_distribution_y4=[0.14,0.18,0.4,0.15,0.13];
initial_distribution_y5=[0.27,0.23,0.082,0.2,0.22];
initial_distribution_y6=[0.21,0.31,0.11,0.072,0.3];
transition_y1=[
0.14,0.25,0.24,0.18,0.19|
0.14,0.24,0.15,0.26,0.21|
0.21,0.26,0.22,0.15,0.16|
0.28,0.096,0.19,0.21,0.23|
0.12,0.21,0.061,0.29,0.31|
];
transition_y2=[
0.17,0.087,0.28,0.22,0.24|
0.11,0.18,0.28,0.4,0.029|
0.082,0.24,0.35,0.27,0.056|
0.15,0.2,0.35,0.24,0.064|
0.11,0.065,0.22,0.44,0.16|
];
transition_y3=[
0.33,0.33,0.2,0.12,0.015|
0.051,0.17,0.17,0.42,0.19|
0.25,0.34,0.23,0.019,0.16|
0.21,0.084,0.18,0.029,0.5|
0.097,0.15,0.42,0.11,0.22|
];
transition_y4=[
0.33,0.15,0.066,0.15,0.3|
0.16,0.18,0.32,0.31,0.03|
0.25,0.14,0.27,0.19,0.15|
0.2,0.18,0.23,0.17,0.22|
0.33,0.33,0.24,0.08,0.021|
];
transition_y5=[
0.014,0.18,0.13,0.3,0.38|
0.27,0.21,0.02,0.24,0.27|
0.19,0.033,0.35,0.015,0.41|
0.55,0.19,0.016,0.062,0.18|
0.19,0.22,0.22,0.24,0.13|
];
transition_y6=[
0.056,0.44,0.33,0.16,0.016|
0.39,0.35,0.23,0.0083,0.025|
0.057,0.14,0.14,0.36,0.31|
0.014,0.16,0.28,0.27,0.28|
0.23,0.25,0.21,0.12,0.19|
];
